p cnf 968 2487
51 -701 -702 0
-51 701 0
-51 702 0
52 -51 -703 0
-52 51 0
-52 703 0
53 -5 -704 0
-53 5 0
-53 704 0
54 -53 -6 0
-54 53 0
-54 6 0
55 -705 -706 0
-55 705 0
-55 706 0
56 -8 -7 0
-56 8 0
-56 7 0
57 -56 -9 0
-57 56 0
-57 9 0
58 -707 -55 0
-58 707 0
-58 55 0
59 -708 -9 0
-59 708 0
-59 9 0
60 -59 -11 0
-60 59 0
-60 11 0
61 -709 -58 0
-61 709 0
-61 58 0
62 -12 -710 0
-62 12 0
-62 710 0
63 -62 -711 0
-63 62 0
-63 711 0
64 -712 -61 0
-64 712 0
-64 61 0
65 -713 -701 0
-65 713 0
-65 701 0
66 -65 -714 0
-66 65 0
-66 714 0
67 -715 -64 0
-67 715 0
-67 64 0
68 -17 -16 0
-68 17 0
-68 16 0
69 -68 -714 0
-69 68 0
-69 714 0
70 -716 -67 0
-70 716 0
-70 67 0
71 -717 -18 0
-71 717 0
-71 18 0
72 -71 -704 0
-72 71 0
-72 704 0
73 -718 -70 0
-73 718 0
-73 70 0
74 -20 -18 0
-74 20 0
-74 18 0
75 -74 -710 0
-75 74 0
-75 710 0
76 -719 -73 0
-76 719 0
-76 73 0
77 -14 -720 0
-77 14 0
-77 720 0
78 -77 -21 0
-78 77 0
-78 21 0
79 -721 -76 0
-79 721 0
-79 76 0
80 -722 -703 0
-80 722 0
-80 703 0
81 -80 -23 0
-81 80 0
-81 23 0
82 -723 -79 0
-82 723 0
-82 79 0
83 -24 -710 0
-83 24 0
-83 710 0
84 -83 -724 0
-84 83 0
-84 724 0
85 -725 -82 0
-85 725 0
-85 82 0
86 -26 -5 0
-86 26 0
-86 5 0
87 -86 -3 0
-87 86 0
-87 3 0
88 -726 -85 0
-88 726 0
-88 85 0
89 -27 -717 0
-89 27 0
-89 717 0
90 -89 -727 0
-90 89 0
-90 727 0
91 -728 -88 0
-91 728 0
-91 88 0
92 -29 -23 0
-92 29 0
-92 23 0
93 -92 -21 0
-93 92 0
-93 21 0
94 -729 -91 0
-94 729 0
-94 91 0
95 -24 -14 0
-95 24 0
-95 14 0
96 -95 -5 0
-96 95 0
-96 5 0
97 -730 -94 0
-97 730 0
-97 94 0
98 -31 -731 0
-98 31 0
-98 731 0
99 -98 -732 0
-99 98 0
-99 732 0
100 -733 -97 0
-100 733 0
-100 97 0
101 -30 -734 0
-101 30 0
-101 734 0
102 -101 -735 0
-102 101 0
-102 735 0
103 -736 -100 0
-103 736 0
-103 100 0
104 -19 -708 0
-104 19 0
-104 708 0
105 -104 -2 0
-105 104 0
-105 2 0
106 -737 -103 0
-106 737 0
-106 103 0
107 -713 -734 0
-107 713 0
-107 734 0
108 -107 -738 0
-108 107 0
-108 738 0
109 -739 -106 0
-109 739 0
-109 106 0
110 -35 -34 0
-110 35 0
-110 34 0
111 -110 -740 0
-111 110 0
-111 740 0
112 -741 -109 0
-112 741 0
-112 109 0
113 -20 -704 0
-113 20 0
-113 704 0
114 -113 -742 0
-114 113 0
-114 742 0
115 -743 -112 0
-115 743 0
-115 112 0
116 -735 -25 0
-116 735 0
-116 25 0
117 -116 -744 0
-117 116 0
-117 744 0
118 -745 -115 0
-118 745 0
-118 115 0
119 -746 -720 0
-119 746 0
-119 720 0
120 -119 -727 0
-120 119 0
-120 727 0
121 -747 -118 0
-121 747 0
-121 118 0
122 -39 -748 0
-122 39 0
-122 748 0
123 -122 -711 0
-123 122 0
-123 711 0
124 -749 -121 0
-124 749 0
-124 121 0
125 -750 -751 0
-125 750 0
-125 751 0
126 -125 -735 0
-126 125 0
-126 735 0
127 -752 -124 0
-127 752 0
-127 124 0
128 -41 -7 0
-128 41 0
-128 7 0
129 -128 -42 0
-129 128 0
-129 42 0
130 -753 -127 0
-130 753 0
-130 127 0
131 -754 -701 0
-131 754 0
-131 701 0
132 -131 -33 0
-132 131 0
-132 33 0
133 -755 -130 0
-133 755 0
-133 130 0
134 -714 -12 0
-134 714 0
-134 12 0
135 -134 -732 0
-135 134 0
-135 732 0
136 -756 -133 0
-136 756 0
-136 133 0
137 -41 -731 0
-137 41 0
-137 731 0
138 -137 -44 0
-138 137 0
-138 44 0
139 -757 -136 0
-139 757 0
-139 136 0
140 -22 -758 0
-140 22 0
-140 758 0
141 -140 -10 0
-141 140 0
-141 10 0
142 -759 -139 0
-142 759 0
-142 139 0
143 -760 -19 0
-143 760 0
-143 19 0
144 -143 -41 0
-144 143 0
-144 41 0
145 -761 -142 0
-145 761 0
-145 142 0
146 -762 -16 0
-146 762 0
-146 16 0
147 -146 -732 0
-147 146 0
-147 732 0
148 -763 -145 0
-148 763 0
-148 145 0
149 -19 -12 0
-149 19 0
-149 12 0
150 -149 -42 0
-150 149 0
-150 42 0
151 -764 -148 0
-151 764 0
-151 148 0
152 -765 -731 0
-152 765 0
-152 731 0
153 -152 -713 0
-153 152 0
-153 713 0
154 -766 -151 0
-154 766 0
-154 151 0
155 -748 -35 0
-155 748 0
-155 35 0
156 -155 -767 0
-156 155 0
-156 767 0
157 -768 -154 0
-157 768 0
-157 154 0
158 -24 -713 0
-158 24 0
-158 713 0
159 -158 -8 0
-159 158 0
-159 8 0
160 -769 -157 0
-160 769 0
-160 157 0
161 -762 -25 0
-161 762 0
-161 25 0
162 -161 -29 0
-162 161 0
-162 29 0
163 -770 -160 0
-163 770 0
-163 160 0
164 -771 -735 0
-164 771 0
-164 735 0
165 -164 -703 0
-165 164 0
-165 703 0
166 -772 -163 0
-166 772 0
-166 163 0
167 -33 -24 0
-167 33 0
-167 24 0
168 -167 -47 0
-168 167 0
-168 47 0
169 -773 -166 0
-169 773 0
-169 166 0
170 -17 -720 0
-170 17 0
-170 720 0
171 -170 -48 0
-171 170 0
-171 48 0
172 -774 -169 0
-172 774 0
-172 169 0
173 -41 -35 0
-173 41 0
-173 35 0
174 -173 -47 0
-174 173 0
-174 47 0
175 -775 -172 0
-175 775 0
-175 172 0
176 -776 -19 0
-176 776 0
-176 19 0
177 -176 -44 0
-177 176 0
-177 44 0
178 -777 -175 0
-178 777 0
-178 175 0
179 -754 -24 0
-179 754 0
-179 24 0
180 -179 -771 0
-180 179 0
-180 771 0
181 -778 -178 0
-181 778 0
-181 178 0
182 -713 -779 0
-182 713 0
-182 779 0
183 -182 -27 0
-183 182 0
-183 27 0
184 -780 -181 0
-184 780 0
-184 181 0
185 -767 -781 0
-185 767 0
-185 781 0
186 -185 -49 0
-186 185 0
-186 49 0
187 -782 -184 0
-187 782 0
-187 184 0
188 -11 -8 0
-188 11 0
-188 8 0
189 -188 -746 0
-189 188 0
-189 746 0
190 -783 -187 0
-190 783 0
-190 187 0
191 -784 -701 0
-191 784 0
-191 701 0
192 -191 -727 0
-192 191 0
-192 727 0
193 -785 -190 0
-193 785 0
-193 190 0
194 -35 -12 0
-194 35 0
-194 12 0
195 -194 -708 0
-195 194 0
-195 708 0
196 -786 -193 0
-196 786 0
-196 193 0
197 -38 -787 0
-197 38 0
-197 787 0
198 -197 -33 0
-198 197 0
-198 33 0
199 -788 -196 0
-199 788 0
-199 196 0
200 -765 -41 0
-200 765 0
-200 41 0
201 -200 -789 0
-201 200 0
-201 789 0
202 -790 -199 0
-202 790 0
-202 199 0
203 -42 -12 0
-203 42 0
-203 12 0
204 -203 -791 0
-204 203 0
-204 791 0
205 -792 -202 0
-205 792 0
-205 202 0
206 -742 -26 0
-206 742 0
-206 26 0
207 -206 -41 0
-207 206 0
-207 41 0
208 -793 -205 0
-208 793 0
-208 205 0
209 -794 -21 0
-209 794 0
-209 21 0
210 -209 -31 0
-210 209 0
-210 31 0
211 -795 -208 0
-211 795 0
-211 208 0
212 -39 -23 0
-212 39 0
-212 23 0
213 -212 -794 0
-213 212 0
-213 794 0
214 -796 -211 0
-214 796 0
-214 211 0
215 -797 -798 0
-215 797 0
-215 798 0
216 -215 -11 0
-216 215 0
-216 11 0
217 -799 -214 0
-217 799 0
-217 214 0
218 -708 -703 0
-218 708 0
-218 703 0
219 -218 -28 0
-219 218 0
-219 28 0
220 -800 -217 0
-220 800 0
-220 217 0
221 -789 -713 0
-221 789 0
-221 713 0
222 -221 -794 0
-222 221 0
-222 794 0
223 -801 -220 0
-223 801 0
-223 220 0
224 -742 -19 0
-224 742 0
-224 19 0
225 -224 -32 0
-225 224 0
-225 32 0
226 -802 -223 0
-226 802 0
-226 223 0
227 -2 -1 0
-227 2 0
-227 1 0
228 -227 -48 0
-228 227 0
-228 48 0
229 -803 -226 0
-229 803 0
-229 226 0
230 -771 -23 0
-230 771 0
-230 23 0
231 -230 -31 0
-231 230 0
-231 31 0
232 -804 -229 0
-232 804 0
-232 229 0
233 -731 -6 0
-233 731 0
-233 6 0
234 -233 -48 0
-234 233 0
-234 48 0
235 -805 -232 0
-235 805 0
-235 232 0
236 -797 -722 0
-236 797 0
-236 722 0
237 -236 -9 0
-237 236 0
-237 9 0
238 -806 -235 0
-238 806 0
-238 235 0
239 -50 -33 0
-239 50 0
-239 33 0
240 -239 -15 0
-240 239 0
-240 15 0
241 -807 -238 0
-241 807 0
-241 238 0
242 -787 -722 0
-242 787 0
-242 722 0
243 -242 -44 0
-243 242 0
-243 44 0
244 -808 -241 0
-244 808 0
-244 241 0
245 -787 -20 0
-245 787 0
-245 20 0
246 -245 -9 0
-246 245 0
-246 9 0
247 -809 -244 0
-247 809 0
-247 244 0
248 -713 -4 0
-248 713 0
-248 4 0
249 -248 -711 0
-249 248 0
-249 711 0
250 -810 -247 0
-250 810 0
-250 247 0
251 -735 -10 0
-251 735 0
-251 10 0
252 -251 -6 0
-252 251 0
-252 6 0
253 -811 -250 0
-253 811 0
-253 250 0
254 -30 -717 0
-254 30 0
-254 717 0
255 -254 -713 0
-255 254 0
-255 713 0
256 -812 -253 0
-256 812 0
-256 253 0
257 -748 -720 0
-257 748 0
-257 720 0
258 -257 -2 0
-258 257 0
-258 2 0
259 -813 -256 0
-259 813 0
-259 256 0
260 -24 -703 0
-260 24 0
-260 703 0
261 -260 -23 0
-261 260 0
-261 23 0
262 -814 -259 0
-262 814 0
-262 259 0
263 -5 -3 0
-263 5 0
-263 3 0
264 -263 -48 0
-264 263 0
-264 48 0
265 -815 -262 0
-265 815 0
-265 262 0
266 -751 -776 0
-266 751 0
-266 776 0
267 -266 -779 0
-267 266 0
-267 779 0
268 -816 -265 0
-268 816 0
-268 265 0
269 -40 -10 0
-269 40 0
-269 10 0
270 -269 -16 0
-270 269 0
-270 16 0
271 -817 -268 0
-271 817 0
-271 268 0
272 -29 -776 0
-272 29 0
-272 776 0
273 -272 -779 0
-273 272 0
-273 779 0
274 -818 -271 0
-274 818 0
-274 271 0
275 -23 -701 0
-275 23 0
-275 701 0
276 -275 -13 0
-276 275 0
-276 13 0
277 -819 -274 0
-277 819 0
-277 274 0
278 -40 -714 0
-278 40 0
-278 714 0
279 -278 -32 0
-279 278 0
-279 32 0
280 -820 -277 0
-280 820 0
-280 277 0
281 -44 -16 0
-281 44 0
-281 16 0
282 -281 -781 0
-282 281 0
-282 781 0
283 -821 -280 0
-283 821 0
-283 280 0
284 -26 -4 0
-284 26 0
-284 4 0
285 -284 -727 0
-285 284 0
-285 727 0
286 -822 -283 0
-286 822 0
-286 283 0
287 -765 -823 0
-287 765 0
-287 823 0
288 -287 -789 0
-288 287 0
-288 789 0
289 -824 -286 0
-289 824 0
-289 286 0
290 -46 -19 0
-290 46 0
-290 19 0
291 -290 -781 0
-291 290 0
-291 781 0
292 -825 -289 0
-292 825 0
-292 289 0
293 -30 -713 0
-293 30 0
-293 713 0
294 -293 -771 0
-294 293 0
-294 771 0
295 -826 -292 0
-295 826 0
-295 292 0
296 -827 -713 0
-296 827 0
-296 713 0
297 -296 -32 0
-297 296 0
-297 32 0
298 -828 -295 0
-298 828 0
-298 295 0
299 -742 -14 0
-299 742 0
-299 14 0
300 -299 -744 0
-300 299 0
-300 744 0
301 -829 -298 0
-301 829 0
-301 298 0
302 -44 -8 0
-302 44 0
-302 8 0
303 -302 -42 0
-303 302 0
-303 42 0
304 -830 -301 0
-304 830 0
-304 301 0
305 -22 -738 0
-305 22 0
-305 738 0
306 -305 -37 0
-306 305 0
-306 37 0
307 -831 -304 0
-307 831 0
-307 304 0
308 -41 -12 0
-308 41 0
-308 12 0
309 -308 -44 0
-309 308 0
-309 44 0
310 -832 -307 0
-310 832 0
-310 307 0
311 -8 -4 0
-311 8 0
-311 4 0
312 -311 -735 0
-312 311 0
-312 735 0
313 -833 -310 0
-313 833 0
-313 310 0
314 -26 -704 0
-314 26 0
-314 704 0
315 -314 -31 0
-315 314 0
-315 31 0
316 -834 -313 0
-316 834 0
-316 313 0
317 -30 -18 0
-317 30 0
-317 18 0
318 -317 -46 0
-318 317 0
-318 46 0
319 -835 -316 0
-319 835 0
-319 316 0
320 -33 -717 0
-320 33 0
-320 717 0
321 -320 -771 0
-321 320 0
-321 771 0
322 -836 -319 0
-322 836 0
-322 319 0
323 -43 -19 0
-323 43 0
-323 19 0
324 -323 -724 0
-324 323 0
-324 724 0
325 -837 -322 0
-325 837 0
-325 322 0
326 -762 -791 0
-326 762 0
-326 791 0
327 -326 -711 0
-327 326 0
-327 711 0
328 -838 -325 0
-328 838 0
-328 325 0
329 -767 -724 0
-329 767 0
-329 724 0
330 -329 -771 0
-330 329 0
-330 771 0
331 -839 -328 0
-331 839 0
-331 328 0
332 -143 -776 0
-332 143 0
-332 776 0
333 -840 -331 0
-333 840 0
-333 331 0
334 -735 -2 0
-334 735 0
-334 2 0
335 -334 -727 0
-335 334 0
-335 727 0
336 -841 -333 0
-336 841 0
-336 333 0
337 -751 -704 0
-337 751 0
-337 704 0
338 -337 -29 0
-338 337 0
-338 29 0
339 -842 -336 0
-339 842 0
-339 336 0
340 -20 -758 0
-340 20 0
-340 758 0
341 -340 -794 0
-341 340 0
-341 794 0
342 -843 -339 0
-342 843 0
-342 339 0
343 -43 -3 0
-343 43 0
-343 3 0
344 -343 -27 0
-344 343 0
-344 27 0
345 -844 -342 0
-345 844 0
-345 342 0
346 -48 -24 0
-346 48 0
-346 24 0
347 -346 -13 0
-347 346 0
-347 13 0
348 -845 -345 0
-348 845 0
-348 345 0
349 -47 -29 0
-349 47 0
-349 29 0
350 -349 -791 0
-350 349 0
-350 791 0
351 -846 -348 0
-351 846 0
-351 348 0
352 -754 -702 0
-352 754 0
-352 702 0
353 -352 -4 0
-353 352 0
-353 4 0
354 -847 -351 0
-354 847 0
-354 351 0
355 -717 -2 0
-355 717 0
-355 2 0
356 -355 -784 0
-356 355 0
-356 784 0
357 -848 -354 0
-357 848 0
-357 354 0
358 -762 -787 0
-358 762 0
-358 787 0
359 -358 -23 0
-359 358 0
-359 23 0
360 -849 -357 0
-360 849 0
-360 357 0
361 -767 -776 0
-361 767 0
-361 776 0
362 -361 -21 0
-362 361 0
-362 21 0
363 -850 -360 0
-363 850 0
-363 360 0
364 -34 -25 0
-364 34 0
-364 25 0
365 -364 -49 0
-365 364 0
-365 49 0
366 -851 -363 0
-366 851 0
-366 363 0
367 -14 -3 0
-367 14 0
-367 3 0
368 -367 -27 0
-368 367 0
-368 27 0
369 -852 -366 0
-369 852 0
-369 366 0
370 -767 -10 0
-370 767 0
-370 10 0
371 -370 -17 0
-371 370 0
-371 17 0
372 -853 -369 0
-372 853 0
-372 369 0
373 -44 -704 0
-373 44 0
-373 704 0
374 -373 -746 0
-374 373 0
-374 746 0
375 -854 -372 0
-375 854 0
-375 372 0
376 -47 -701 0
-376 47 0
-376 701 0
377 -376 -791 0
-377 376 0
-377 791 0
378 -855 -375 0
-378 855 0
-378 375 0
379 -856 -724 0
-379 856 0
-379 724 0
380 -379 -21 0
-380 379 0
-380 21 0
381 -857 -378 0
-381 857 0
-381 378 0
382 -765 -858 0
-382 765 0
-382 858 0
383 -382 -28 0
-383 382 0
-383 28 0
384 -859 -381 0
-384 859 0
-384 381 0
385 -50 -22 0
-385 50 0
-385 22 0
386 -385 -47 0
-386 385 0
-386 47 0
387 -860 -384 0
-387 860 0
-387 384 0
388 -42 -30 0
-388 42 0
-388 30 0
389 -388 -781 0
-389 388 0
-389 781 0
390 -861 -387 0
-390 861 0
-390 387 0
391 -735 -7 0
-391 735 0
-391 7 0
392 -391 -862 0
-392 391 0
-392 862 0
393 -863 -390 0
-393 863 0
-393 390 0
394 -44 -758 0
-394 44 0
-394 758 0
395 -394 -864 0
-395 394 0
-395 864 0
396 -865 -393 0
-396 865 0
-396 393 0
397 -746 -776 0
-397 746 0
-397 776 0
398 -397 -711 0
-398 397 0
-398 711 0
399 -866 -396 0
-399 866 0
-399 396 0
400 -762 -4 0
-400 762 0
-400 4 0
401 -400 -734 0
-401 400 0
-401 734 0
402 -867 -399 0
-402 867 0
-402 399 0
403 -798 -779 0
-403 798 0
-403 779 0
404 -403 -735 0
-404 403 0
-404 735 0
405 -868 -402 0
-405 868 0
-405 402 0
406 -731 -4 0
-406 731 0
-406 4 0
407 -406 -701 0
-407 406 0
-407 701 0
408 -869 -405 0
-408 869 0
-408 405 0
409 -798 -7 0
-409 798 0
-409 7 0
410 -409 -48 0
-410 409 0
-410 48 0
411 -870 -408 0
-411 870 0
-411 408 0
412 -42 -722 0
-412 42 0
-412 722 0
413 -412 -15 0
-413 412 0
-413 15 0
414 -871 -411 0
-414 871 0
-414 411 0
415 -45 -14 0
-415 45 0
-415 14 0
416 -415 -735 0
-416 415 0
-416 735 0
417 -872 -414 0
-417 872 0
-417 414 0
418 -731 -8 0
-418 731 0
-418 8 0
419 -418 -744 0
-419 418 0
-419 744 0
420 -873 -417 0
-420 873 0
-420 417 0
421 -750 -24 0
-421 750 0
-421 24 0
422 -421 -740 0
-422 421 0
-422 740 0
423 -874 -420 0
-423 874 0
-423 420 0
424 -29 -703 0
-424 29 0
-424 703 0
425 -424 -746 0
-425 424 0
-425 746 0
426 -875 -423 0
-426 875 0
-426 423 0
427 -4 -703 0
-427 4 0
-427 703 0
428 -427 -15 0
-428 427 0
-428 15 0
429 -876 -426 0
-429 876 0
-429 426 0
430 -856 -19 0
-430 856 0
-430 19 0
431 -430 -714 0
-431 430 0
-431 714 0
432 -877 -429 0
-432 877 0
-432 429 0
433 -14 -12 0
-433 14 0
-433 12 0
434 -433 -42 0
-434 433 0
-434 42 0
435 -878 -432 0
-435 878 0
-435 432 0
436 -43 -26 0
-436 43 0
-436 26 0
437 -436 -45 0
-437 436 0
-437 45 0
438 -879 -435 0
-438 879 0
-438 435 0
439 -50 -25 0
-439 50 0
-439 25 0
440 -439 -9 0
-440 439 0
-440 9 0
441 -880 -438 0
-441 880 0
-441 438 0
442 -30 -864 0
-442 30 0
-442 864 0
443 -442 -47 0
-443 442 0
-443 47 0
444 -881 -441 0
-444 881 0
-444 441 0
445 -731 -16 0
-445 731 0
-445 16 0
446 -445 -3 0
-446 445 0
-446 3 0
447 -882 -444 0
-447 882 0
-447 444 0
448 -827 -4 0
-448 827 0
-448 4 0
449 -448 -32 0
-449 448 0
-449 32 0
450 -883 -447 0
-450 883 0
-450 447 0
451 -36 -713 0
-451 36 0
-451 713 0
452 -451 -708 0
-452 451 0
-452 708 0
453 -884 -450 0
-453 884 0
-453 450 0
454 -823 -713 0
-454 823 0
-454 713 0
455 -454 -48 0
-455 454 0
-455 48 0
456 -885 -453 0
-456 885 0
-456 453 0
457 -722 -708 0
-457 722 0
-457 708 0
458 -457 -791 0
-458 457 0
-458 791 0
459 -886 -456 0
-459 886 0
-459 456 0
460 -750 -731 0
-460 750 0
-460 731 0
461 -460 -48 0
-461 460 0
-461 48 0
462 -887 -459 0
-462 887 0
-462 459 0
463 -708 -710 0
-463 708 0
-463 710 0
464 -463 -23 0
-464 463 0
-464 23 0
465 -888 -462 0
-465 888 0
-465 462 0
466 -25 -781 0
-466 25 0
-466 781 0
467 -466 -32 0
-467 466 0
-467 32 0
468 -889 -465 0
-468 889 0
-468 465 0
469 -823 -35 0
-469 823 0
-469 35 0
470 -469 -32 0
-470 469 0
-470 32 0
471 -890 -468 0
-471 890 0
-471 468 0
472 -765 -1 0
-472 765 0
-472 1 0
473 -472 -44 0
-473 472 0
-473 44 0
474 -891 -471 0
-474 891 0
-474 471 0
475 -47 -735 0
-475 47 0
-475 735 0
476 -475 -31 0
-476 475 0
-476 31 0
477 -892 -474 0
-477 892 0
-477 474 0
478 -460 -9 0
-478 460 0
-478 9 0
479 -893 -477 0
-479 893 0
-479 477 0
480 -20 -720 0
-480 20 0
-480 720 0
481 -480 -11 0
-481 480 0
-481 11 0
482 -894 -479 0
-482 894 0
-482 479 0
483 -856 -864 0
-483 856 0
-483 864 0
484 -483 -28 0
-484 483 0
-484 28 0
485 -895 -482 0
-485 895 0
-485 482 0
486 -26 -20 0
-486 26 0
-486 20 0
487 -486 -15 0
-487 486 0
-487 15 0
488 -896 -485 0
-488 896 0
-488 485 0
489 -750 -767 0
-489 750 0
-489 767 0
490 -489 -13 0
-490 489 0
-490 13 0
491 -897 -488 0
-491 897 0
-491 488 0
492 -49 -30 0
-492 49 0
-492 30 0
493 -492 -32 0
-493 492 0
-493 32 0
494 -898 -491 0
-494 898 0
-494 491 0
495 -23 -15 0
-495 23 0
-495 15 0
496 -495 -862 0
-496 495 0
-496 862 0
497 -899 -494 0
-497 899 0
-497 494 0
498 -771 -710 0
-498 771 0
-498 710 0
499 -498 -17 0
-499 498 0
-499 17 0
500 -900 -497 0
-500 900 0
-500 497 0
501 -30 -720 0
-501 30 0
-501 720 0
502 -501 -762 0
-502 501 0
-502 762 0
503 -901 -500 0
-503 901 0
-503 500 0
504 -40 -760 0
-504 40 0
-504 760 0
505 -504 -17 0
-505 504 0
-505 17 0
506 -902 -503 0
-506 902 0
-506 503 0
507 -11 -708 0
-507 11 0
-507 708 0
508 -507 -39 0
-508 507 0
-508 39 0
509 -903 -506 0
-509 903 0
-509 506 0
510 -740 -779 0
-510 740 0
-510 779 0
511 -510 -13 0
-511 510 0
-511 13 0
512 -904 -509 0
-512 904 0
-512 509 0
513 -789 -26 0
-513 789 0
-513 26 0
514 -513 -45 0
-514 513 0
-514 45 0
515 -905 -512 0
-515 905 0
-515 512 0
516 -731 -1 0
-516 731 0
-516 1 0
517 -516 -727 0
-517 516 0
-517 727 0
518 -906 -515 0
-518 906 0
-518 515 0
519 -39 -37 0
-519 39 0
-519 37 0
520 -519 -32 0
-520 519 0
-520 32 0
521 -907 -518 0
-521 907 0
-521 518 0
522 -10 -779 0
-522 10 0
-522 779 0
523 -522 -3 0
-523 522 0
-523 3 0
524 -908 -521 0
-524 908 0
-524 521 0
525 -40 -19 0
-525 40 0
-525 19 0
526 -525 -909 0
-526 525 0
-526 909 0
527 -910 -524 0
-527 910 0
-527 524 0
528 -760 -9 0
-528 760 0
-528 9 0
529 -528 -42 0
-529 528 0
-529 42 0
530 -911 -527 0
-530 911 0
-530 527 0
531 -16 -702 0
-531 16 0
-531 702 0
532 -531 -5 0
-532 531 0
-532 5 0
533 -912 -530 0
-533 912 0
-533 530 0
534 -750 -798 0
-534 750 0
-534 798 0
535 -534 -21 0
-535 534 0
-535 21 0
536 -913 -533 0
-536 913 0
-536 533 0
537 -767 -701 0
-537 767 0
-537 701 0
538 -537 -794 0
-538 537 0
-538 794 0
539 -914 -536 0
-539 914 0
-539 536 0
540 -767 -16 0
-540 767 0
-540 16 0
541 -540 -13 0
-541 540 0
-541 13 0
542 -915 -539 0
-542 915 0
-542 539 0
543 -742 -731 0
-543 742 0
-543 731 0
544 -543 -31 0
-544 543 0
-544 31 0
545 -916 -542 0
-545 916 0
-545 542 0
546 -34 -779 0
-546 34 0
-546 779 0
547 -546 -42 0
-547 546 0
-547 42 0
548 -917 -545 0
-548 917 0
-548 545 0
549 -47 -42 0
-549 47 0
-549 42 0
550 -549 -727 0
-550 549 0
-550 727 0
551 -918 -548 0
-551 918 0
-551 548 0
552 -740 -14 0
-552 740 0
-552 14 0
553 -552 -771 0
-553 552 0
-553 771 0
554 -919 -551 0
-554 919 0
-554 551 0
555 -38 -30 0
-555 38 0
-555 30 0
556 -555 -735 0
-556 555 0
-556 735 0
557 -920 -554 0
-557 920 0
-557 554 0
558 -744 -787 0
-558 744 0
-558 787 0
559 -558 -784 0
-559 558 0
-559 784 0
560 -921 -557 0
-560 921 0
-560 557 0
561 -797 -701 0
-561 797 0
-561 701 0
562 -561 -711 0
-562 561 0
-562 711 0
563 -922 -560 0
-563 922 0
-563 560 0
564 -16 -11 0
-564 16 0
-564 11 0
565 -564 -31 0
-565 564 0
-565 31 0
566 -923 -563 0
-566 923 0
-566 563 0
567 -16 -720 0
-567 16 0
-567 720 0
568 -567 -711 0
-568 567 0
-568 711 0
569 -924 -566 0
-569 924 0
-569 566 0
570 -789 -742 0
-570 789 0
-570 742 0
571 -570 -47 0
-571 570 0
-571 47 0
572 -925 -569 0
-572 925 0
-572 569 0
573 -46 -779 0
-573 46 0
-573 779 0
574 -573 -47 0
-574 573 0
-574 47 0
575 -926 -572 0
-575 926 0
-575 572 0
576 -765 -776 0
-576 765 0
-576 776 0
577 -576 -746 0
-577 576 0
-577 746 0
578 -927 -575 0
-578 927 0
-578 575 0
579 -789 -750 0
-579 789 0
-579 750 0
580 -579 -784 0
-580 579 0
-580 784 0
581 -928 -578 0
-581 928 0
-581 578 0
582 -746 -864 0
-582 746 0
-582 864 0
583 -582 -32 0
-583 582 0
-583 32 0
584 -929 -581 0
-584 929 0
-584 581 0
585 -10 -703 0
-585 10 0
-585 703 0
586 -585 -13 0
-586 585 0
-586 13 0
587 -930 -584 0
-587 930 0
-587 584 0
588 -19 -15 0
-588 19 0
-588 15 0
589 -588 -31 0
-589 588 0
-589 31 0
590 -931 -587 0
-590 931 0
-590 587 0
591 -33 -781 0
-591 33 0
-591 781 0
592 -591 -714 0
-592 591 0
-592 714 0
593 -932 -590 0
-593 932 0
-593 590 0
594 -44 -740 0
-594 44 0
-594 740 0
595 -594 -17 0
-595 594 0
-595 17 0
596 -933 -593 0
-596 933 0
-596 593 0
597 -47 -18 0
-597 47 0
-597 18 0
598 -597 -746 0
-598 597 0
-598 746 0
599 -934 -596 0
-599 934 0
-599 596 0
600 -50 -748 0
-600 50 0
-600 748 0
601 -600 -44 0
-601 600 0
-601 44 0
602 -935 -599 0
-602 935 0
-602 599 0
603 -49 -38 0
-603 49 0
-603 38 0
604 -603 -31 0
-604 603 0
-604 31 0
605 -936 -602 0
-605 936 0
-605 602 0
606 -40 -722 0
-606 40 0
-606 722 0
607 -606 -29 0
-607 606 0
-607 29 0
608 -937 -605 0
-608 937 0
-608 605 0
609 -38 -4 0
-609 38 0
-609 4 0
610 -609 -42 0
-610 609 0
-610 42 0
611 -938 -608 0
-611 938 0
-611 608 0
612 -24 -779 0
-612 24 0
-612 779 0
613 -612 -23 0
-613 612 0
-613 23 0
614 -939 -611 0
-614 939 0
-614 611 0
615 -8 -702 0
-615 8 0
-615 702 0
616 -615 -28 0
-616 615 0
-616 28 0
617 -940 -614 0
-617 940 0
-617 614 0
618 -797 -18 0
-618 797 0
-618 18 0
619 -618 -740 0
-619 618 0
-619 740 0
620 -941 -617 0
-620 941 0
-620 617 0
621 -781 -862 0
-621 781 0
-621 862 0
622 -621 -784 0
-622 621 0
-622 784 0
623 -942 -620 0
-623 942 0
-623 620 0
624 -789 -24 0
-624 789 0
-624 24 0
625 -624 -740 0
-625 624 0
-625 740 0
626 -943 -623 0
-626 943 0
-626 623 0
627 -748 -29 0
-627 748 0
-627 29 0
628 -627 -31 0
-628 627 0
-628 31 0
629 -944 -626 0
-629 944 0
-629 626 0
630 -29 -791 0
-630 29 0
-630 791 0
631 -630 -23 0
-631 630 0
-631 23 0
632 -945 -629 0
-632 945 0
-632 629 0
633 -47 -758 0
-633 47 0
-633 758 0
634 -633 -862 0
-634 633 0
-634 862 0
635 -946 -632 0
-635 946 0
-635 632 0
636 -5 -701 0
-636 5 0
-636 701 0
637 -636 -746 0
-637 636 0
-637 746 0
638 -947 -635 0
-638 947 0
-638 635 0
639 -47 -702 0
-639 47 0
-639 702 0
640 -639 -791 0
-640 639 0
-640 791 0
641 -948 -638 0
-641 948 0
-641 638 0
642 -275 -744 0
-642 275 0
-642 744 0
643 -949 -641 0
-643 949 0
-643 641 0
644 -798 -18 0
-644 798 0
-644 18 0
645 -644 -794 0
-645 644 0
-645 794 0
646 -950 -643 0
-646 950 0
-646 643 0
647 -748 -34 0
-647 748 0
-647 34 0
648 -647 -28 0
-648 647 0
-648 28 0
649 -951 -646 0
-649 951 0
-649 646 0
650 -735 -701 0
-650 735 0
-650 701 0
651 -650 -27 0
-651 650 0
-651 27 0
652 -952 -649 0
-652 952 0
-652 649 0
653 -9 -703 0
-653 9 0
-653 703 0
654 -653 -49 0
-654 653 0
-654 49 0
655 -953 -652 0
-655 953 0
-655 652 0
656 -50 -789 0
-656 50 0
-656 789 0
657 -656 -23 0
-657 656 0
-657 23 0
658 -954 -655 0
-658 954 0
-658 655 0
659 -827 -33 0
-659 827 0
-659 33 0
660 -659 -5 0
-660 659 0
-660 5 0
661 -955 -658 0
-661 955 0
-661 658 0
662 -787 -758 0
-662 787 0
-662 758 0
663 -662 -6 0
-663 662 0
-663 6 0
664 -956 -661 0
-664 956 0
-664 661 0
665 -789 -37 0
-665 789 0
-665 37 0
666 -665 -32 0
-666 665 0
-666 32 0
667 -957 -664 0
-667 957 0
-667 664 0
668 -44 -702 0
-668 44 0
-668 702 0
669 -668 -31 0
-669 668 0
-669 31 0
670 -958 -667 0
-670 958 0
-670 667 0
671 -797 -44 0
-671 797 0
-671 44 0
672 -671 -21 0
-672 671 0
-672 21 0
673 -959 -670 0
-673 959 0
-673 670 0
674 -35 -731 0
-674 35 0
-674 731 0
675 -674 -39 0
-675 674 0
-675 39 0
676 -960 -673 0
-676 960 0
-676 673 0
677 -50 -6 0
-677 50 0
-677 6 0
678 -677 -858 0
-678 677 0
-678 858 0
679 -961 -676 0
-679 961 0
-679 676 0
680 -43 -740 0
-680 43 0
-680 740 0
681 -680 -864 0
-681 680 0
-681 864 0
682 -962 -679 0
-682 962 0
-682 679 0
683 -767 -8 0
-683 767 0
-683 8 0
684 -683 -47 0
-684 683 0
-684 47 0
685 -963 -682 0
-685 963 0
-685 682 0
686 -856 -24 0
-686 856 0
-686 24 0
687 -686 -21 0
-687 686 0
-687 21 0
688 -964 -685 0
-688 964 0
-688 685 0
689 -762 -44 0
-689 762 0
-689 44 0
690 -689 -31 0
-690 689 0
-690 31 0
691 -965 -688 0
-691 965 0
-691 688 0
692 -797 -779 0
-692 797 0
-692 779 0
693 -692 -27 0
-693 692 0
-693 27 0
694 -966 -691 0
-694 966 0
-694 691 0
695 -17 -711 0
-695 17 0
-695 711 0
696 -695 -49 0
-696 695 0
-696 49 0
697 -967 -694 0
-697 967 0
-697 694 0
698 -40 -767 0
-698 40 0
-698 767 0
699 -698 -732 0
-699 698 0
-699 732 0
700 -968 -697 0
-700 968 0
-700 697 0
-701 -2 0
701 2 0
-702 -1 0
702 1 0
-703 -3 0
703 3 0
-704 -4 0
704 4 0
-705 -54 0
705 54 0
-706 -52 0
706 52 0
-707 -57 0
707 57 0
-708 -10 0
708 10 0
-709 -60 0
709 60 0
-710 -7 0
710 7 0
-711 -13 0
711 13 0
-712 -63 0
712 63 0
-713 -14 0
713 14 0
-714 -15 0
714 15 0
-715 -66 0
715 66 0
-716 -69 0
716 69 0
-717 -19 0
717 19 0
-718 -72 0
718 72 0
-719 -75 0
719 75 0
-720 -12 0
720 12 0
-721 -78 0
721 78 0
-722 -22 0
722 22 0
-723 -81 0
723 81 0
-724 -25 0
724 25 0
-725 -84 0
725 84 0
-726 -87 0
726 87 0
-727 -28 0
727 28 0
-728 -90 0
728 90 0
-729 -93 0
729 93 0
-730 -96 0
730 96 0
-731 -30 0
731 30 0
-732 -32 0
732 32 0
-733 -99 0
733 99 0
-734 -8 0
734 8 0
-735 -33 0
735 33 0
-736 -102 0
736 102 0
-737 -105 0
737 105 0
-738 -17 0
738 17 0
-739 -108 0
739 108 0
-740 -16 0
740 16 0
-741 -111 0
741 111 0
-742 -36 0
742 36 0
-743 -114 0
743 114 0
-744 -27 0
744 27 0
-745 -117 0
745 117 0
-746 -37 0
746 37 0
-747 -120 0
747 120 0
-748 -38 0
748 38 0
-749 -123 0
749 123 0
-750 -40 0
750 40 0
-751 -35 0
751 35 0
-752 -126 0
752 126 0
-753 -129 0
753 129 0
-754 -43 0
754 43 0
-755 -132 0
755 132 0
-756 -135 0
756 135 0
-757 -138 0
757 138 0
-758 -18 0
758 18 0
-759 -141 0
759 141 0
-760 -34 0
760 34 0
-761 -144 0
761 144 0
-762 -45 0
762 45 0
-763 -147 0
763 147 0
-764 -150 0
764 150 0
-765 -46 0
765 46 0
-766 -153 0
766 153 0
-767 -29 0
767 29 0
-768 -156 0
768 156 0
-769 -159 0
769 159 0
-770 -162 0
770 162 0
-771 -47 0
771 47 0
-772 -165 0
772 165 0
-773 -168 0
773 168 0
-774 -171 0
774 171 0
-775 -174 0
775 174 0
-776 -26 0
776 26 0
-777 -177 0
777 177 0
-778 -180 0
778 180 0
-779 -9 0
779 9 0
-780 -183 0
780 183 0
-781 -23 0
781 23 0
-782 -186 0
782 186 0
-783 -189 0
783 189 0
-784 -39 0
784 39 0
-785 -192 0
785 192 0
-786 -195 0
786 195 0
-787 -24 0
787 24 0
-788 -198 0
788 198 0
-789 -44 0
789 44 0
-790 -201 0
790 201 0
-791 -6 0
791 6 0
-792 -204 0
792 204 0
-793 -207 0
793 207 0
-794 -49 0
794 49 0
-795 -210 0
795 210 0
-796 -213 0
796 213 0
-797 -50 0
797 50 0
-798 -20 0
798 20 0
-799 -216 0
799 216 0
-800 -219 0
800 219 0
-801 -222 0
801 222 0
-802 -225 0
802 225 0
-803 -228 0
803 228 0
-804 -231 0
804 231 0
-805 -234 0
805 234 0
-806 -237 0
806 237 0
-807 -240 0
807 240 0
-808 -243 0
808 243 0
-809 -246 0
809 246 0
-810 -249 0
810 249 0
-811 -252 0
811 252 0
-812 -255 0
812 255 0
-813 -258 0
813 258 0
-814 -261 0
814 261 0
-815 -264 0
815 264 0
-816 -267 0
816 267 0
-817 -270 0
817 270 0
-818 -273 0
818 273 0
-819 -276 0
819 276 0
-820 -279 0
820 279 0
-821 -282 0
821 282 0
-822 -285 0
822 285 0
-823 -41 0
823 41 0
-824 -288 0
824 288 0
-825 -291 0
825 291 0
-826 -294 0
826 294 0
-827 -42 0
827 42 0
-828 -297 0
828 297 0
-829 -300 0
829 300 0
-830 -303 0
830 303 0
-831 -306 0
831 306 0
-832 -309 0
832 309 0
-833 -312 0
833 312 0
-834 -315 0
834 315 0
-835 -318 0
835 318 0
-836 -321 0
836 321 0
-837 -324 0
837 324 0
-838 -327 0
838 327 0
-839 -330 0
839 330 0
-840 -332 0
840 332 0
-841 -335 0
841 335 0
-842 -338 0
842 338 0
-843 -341 0
843 341 0
-844 -344 0
844 344 0
-845 -347 0
845 347 0
-846 -350 0
846 350 0
-847 -353 0
847 353 0
-848 -356 0
848 356 0
-849 -359 0
849 359 0
-850 -362 0
850 362 0
-851 -365 0
851 365 0
-852 -368 0
852 368 0
-853 -371 0
853 371 0
-854 -374 0
854 374 0
-855 -377 0
855 377 0
-856 -48 0
856 48 0
-857 -380 0
857 380 0
-858 -21 0
858 21 0
-859 -383 0
859 383 0
-860 -386 0
860 386 0
-861 -389 0
861 389 0
-862 -11 0
862 11 0
-863 -392 0
863 392 0
-864 -5 0
864 5 0
-865 -395 0
865 395 0
-866 -398 0
866 398 0
-867 -401 0
867 401 0
-868 -404 0
868 404 0
-869 -407 0
869 407 0
-870 -410 0
870 410 0
-871 -413 0
871 413 0
-872 -416 0
872 416 0
-873 -419 0
873 419 0
-874 -422 0
874 422 0
-875 -425 0
875 425 0
-876 -428 0
876 428 0
-877 -431 0
877 431 0
-878 -434 0
878 434 0
-879 -437 0
879 437 0
-880 -440 0
880 440 0
-881 -443 0
881 443 0
-882 -446 0
882 446 0
-883 -449 0
883 449 0
-884 -452 0
884 452 0
-885 -455 0
885 455 0
-886 -458 0
886 458 0
-887 -461 0
887 461 0
-888 -464 0
888 464 0
-889 -467 0
889 467 0
-890 -470 0
890 470 0
-891 -473 0
891 473 0
-892 -476 0
892 476 0
-893 -478 0
893 478 0
-894 -481 0
894 481 0
-895 -484 0
895 484 0
-896 -487 0
896 487 0
-897 -490 0
897 490 0
-898 -493 0
898 493 0
-899 -496 0
899 496 0
-900 -499 0
900 499 0
-901 -502 0
901 502 0
-902 -505 0
902 505 0
-903 -508 0
903 508 0
-904 -511 0
904 511 0
-905 -514 0
905 514 0
-906 -517 0
906 517 0
-907 -520 0
907 520 0
-908 -523 0
908 523 0
-909 -31 0
909 31 0
-910 -526 0
910 526 0
-911 -529 0
911 529 0
-912 -532 0
912 532 0
-913 -535 0
913 535 0
-914 -538 0
914 538 0
-915 -541 0
915 541 0
-916 -544 0
916 544 0
-917 -547 0
917 547 0
-918 -550 0
918 550 0
-919 -553 0
919 553 0
-920 -556 0
920 556 0
-921 -559 0
921 559 0
-922 -562 0
922 562 0
-923 -565 0
923 565 0
-924 -568 0
924 568 0
-925 -571 0
925 571 0
-926 -574 0
926 574 0
-927 -577 0
927 577 0
-928 -580 0
928 580 0
-929 -583 0
929 583 0
-930 -586 0
930 586 0
-931 -589 0
931 589 0
-932 -592 0
932 592 0
-933 -595 0
933 595 0
-934 -598 0
934 598 0
-935 -601 0
935 601 0
-936 -604 0
936 604 0
-937 -607 0
937 607 0
-938 -610 0
938 610 0
-939 -613 0
939 613 0
-940 -616 0
940 616 0
-941 -619 0
941 619 0
-942 -622 0
942 622 0
-943 -625 0
943 625 0
-944 -628 0
944 628 0
-945 -631 0
945 631 0
-946 -634 0
946 634 0
-947 -637 0
947 637 0
-948 -640 0
948 640 0
-949 -642 0
949 642 0
-950 -645 0
950 645 0
-951 -648 0
951 648 0
-952 -651 0
952 651 0
-953 -654 0
953 654 0
-954 -657 0
954 657 0
-955 -660 0
955 660 0
-956 -663 0
956 663 0
-957 -666 0
957 666 0
-958 -669 0
958 669 0
-959 -672 0
959 672 0
-960 -675 0
960 675 0
-961 -678 0
961 678 0
-962 -681 0
962 681 0
-963 -684 0
963 684 0
-964 -687 0
964 687 0
-965 -690 0
965 690 0
-966 -693 0
966 693 0
-967 -696 0
967 696 0
-968 -699 0
968 699 0
700 0
